c at-most-two of 5 pidgeon in 2 holes
c p1@1 1
c p2@1 2
c p3@1 3
c p4@1 4
c p5@1 5
c p1@2 6
c p2@2 7
c p3@2 8
c p4@2 9
c p5@2 10
p cnf 10 25
-1 -2 -3 0
-1 -2 -4 0
-1 -2 -5 0
-1 -3 -4 0
-1 -3 -5 0
-1 -4 -5 0
-2 -3 -4 0
-2 -3 -5 0
-2 -4 -5 0
-3 -4 -5 0
-6 -7 -8 0
-6 -7 -9 0
-6 -7 -10 0
-6 -8 -9 0
-6 -8 -10 0
-6 -9 -10 0
-7 -8 -9 0
-7 -8 -10 0
-7 -9 -10 0
-8 -9 -10 0
1 6 0
2 7 0
3 8 0
4 9 0
5 10 0
